c User generated cnf file
p cnf 13 22
-3 10 3 0 
11 9 -5 0 
6 12 -4 0 
5 1 -8 0 
7 9 -11 0 
-11 11 9 0 
4 8 -1 0 
2 -11 8 0 
5 8 -4 0 
-11 8 5 0 
6 2 -9 0 
13 -3 13 0 
3 -5 13 0 
6 2 -9 0 
-5 12 7 0 
11 -2 2 0 
12 -4 11 0 
1 7 -2 0 
-11 10 9 0 
6 -7 9 0 
8 -6 13 0 
8 1 -10 0 
